max: +x11+x12+x13+x14+x15+x16+x17+x21+x22+x23+x24+x25+x26+x27+x31+x32+x33+x34+x35+x36+x37+x41+x42+x43+x44+x45+x46+x47+x51+x52+x53+x54+x55+x56+x57+x61+x62+x63+x64+x65+x66+x67+x71+x72+x73+x74+x75+x76+x77;
+x23+x32-4x11 >= 0;
+x31+x24+x33-4x12 >= 0;
+x32+x21+x25+x34-4x13 >= 0;
+x33+x22+x26+x35-4x14 >= 0;
+x34+x23+x27+x36-4x15 >= 0;
+x35+x24+x37-4x16 >= 0;
+x36+x25-4x17 >= 0;
+x13+x33+x42-4x21 >= 0;
+x14+x41+x34+x43-4x22 >= 0;
+x11+x15+x42+x31+x35+x44-4x23 >= 0;
+x12+x16+x43+x32+x36+x45-4x24 >= 0;
+x13+x17+x44+x33+x37+x46-4x25 >= 0;
+x14+x45+x34+x47-4x26 >= 0;
+x15+x46+x35-4x27 >= 0;
+x23+x12+x43+x52-4x31 >= 0;
+x11+x24+x51+x13+x44+x53-4x32 >= 0;
+x21+x12+x25+x52+x41+x14+x45+x54-4x33 >= 0;
+x22+x13+x26+x53+x42+x15+x46+x55-4x34 >= 0;
+x23+x14+x27+x54+x43+x16+x47+x56-4x35 >= 0;
+x24+x15+x55+x44+x17+x57-4x36 >= 0;
+x25+x16+x56+x45-4x37 >= 0;
+x33+x22+x53+x62-4x41 >= 0;
+x21+x34+x61+x23+x54+x63-4x42 >= 0;
+x31+x22+x35+x62+x51+x24+x55+x64-4x43 >= 0;
+x32+x23+x36+x63+x52+x25+x56+x65-4x44 >= 0;
+x33+x24+x37+x64+x53+x26+x57+x66-4x45 >= 0;
+x34+x25+x65+x54+x27+x67-4x46 >= 0;
+x35+x26+x66+x55-4x47 >= 0;
+x43+x32+x63+x72-4x51 >= 0;
+x31+x44+x71+x33+x64+x73-4x52 >= 0;
+x41+x32+x45+x72+x61+x34+x65+x74-4x53 >= 0;
+x42+x33+x46+x73+x62+x35+x66+x75-4x54 >= 0;
+x43+x34+x47+x74+x63+x36+x67+x76-4x55 >= 0;
+x44+x35+x75+x64+x37+x77-4x56 >= 0;
+x45+x36+x76+x65-4x57 >= 0;
+x53+x42+x73-4x61 >= 0;
+x41+x54+x43+x74-4x62 >= 0;
+x51+x42+x55+x71+x44+x75-4x63 >= 0;
+x52+x43+x56+x72+x45+x76-4x64 >= 0;
+x53+x44+x57+x73+x46+x77-4x65 >= 0;
+x54+x45+x74+x47-4x66 >= 0;
+x55+x46+x75-4x67 >= 0;
+x63+x52-4x71 >= 0;
+x51+x64+x53-4x72 >= 0;
+x61+x52+x65+x54-4x73 >= 0;
+x62+x53+x66+x55-4x74 >= 0;
+x63+x54+x67+x56-4x75 >= 0;
+x64+x55+x57-4x76 >= 0;
+x65+x56-4x77 >= 0;
+x23+x32+4x11 <= 8;
+x31+x24+x33+4x12 <= 8;
+x32+x21+x25+x34+4x13 <= 8;
+x33+x22+x26+x35+4x14 <= 8;
+x34+x23+x27+x36+4x15 <= 8;
+x35+x24+x37+4x16 <= 8;
+x36+x25+4x17 <= 8;
+x13+x33+x42+4x21 <= 8;
+x14+x41+x34+x43+4x22 <= 8;
+x11+x15+x42+x31+x35+x44+4x23 <= 8;
+x12+x16+x43+x32+x36+x45+4x24 <= 8;
+x13+x17+x44+x33+x37+x46+4x25 <= 8;
+x14+x45+x34+x47+4x26 <= 8;
+x15+x46+x35+4x27 <= 8;
+x23+x12+x43+x52+4x31 <= 8;
+x11+x24+x51+x13+x44+x53+4x32 <= 8;
+x21+x12+x25+x52+x41+x14+x45+x54+4x33 <= 8;
+x22+x13+x26+x53+x42+x15+x46+x55+4x34 <= 8;
+x23+x14+x27+x54+x43+x16+x47+x56+4x35 <= 8;
+x24+x15+x55+x44+x17+x57+4x36 <= 8;
+x25+x16+x56+x45+4x37 <= 8;
+x33+x22+x53+x62+4x41 <= 8;
+x21+x34+x61+x23+x54+x63+4x42 <= 8;
+x31+x22+x35+x62+x51+x24+x55+x64+4x43 <= 8;
+x32+x23+x36+x63+x52+x25+x56+x65+4x44 <= 8;
+x33+x24+x37+x64+x53+x26+x57+x66+4x45 <= 8;
+x34+x25+x65+x54+x27+x67+4x46 <= 8;
+x35+x26+x66+x55+4x47 <= 8;
+x43+x32+x63+x72+4x51 <= 8;
+x31+x44+x71+x33+x64+x73+4x52 <= 8;
+x41+x32+x45+x72+x61+x34+x65+x74+4x53 <= 8;
+x42+x33+x46+x73+x62+x35+x66+x75+4x54 <= 8;
+x43+x34+x47+x74+x63+x36+x67+x76+4x55 <= 8;
+x44+x35+x75+x64+x37+x77+4x56 <= 8;
+x45+x36+x76+x65+4x57 <= 8;
+x53+x42+x73+4x61 <= 8;
+x41+x54+x43+x74+4x62 <= 8;
+x51+x42+x55+x71+x44+x75+4x63 <= 8;
+x52+x43+x56+x72+x45+x76+4x64 <= 8;
+x53+x44+x57+x73+x46+x77+4x65 <= 8;
+x54+x45+x74+x47+4x66 <= 8;
+x55+x46+x75+4x67 <= 8;
+x63+x52+4x71 <= 8;
+x51+x64+x53+4x72 <= 8;
+x61+x52+x65+x54+4x73 <= 8;
+x62+x53+x66+x55+4x74 <= 8;
+x63+x54+x67+x56+4x75 <= 8;
+x64+x55+x57+4x76 <= 8;
+x65+x56+4x77 <= 8;
bin x11,x12,x13,x14,x15,x16,x17,x21,x22,x23,x24,x25,x26,x27,x31,x32,x33,x34,x35,x36,x37,x41,x42,x43,x44,x45,x46,x47,x51,x52,x53,x54,x55,x56,x57,x61,x62,x63,x64,x65,x66,x67,x71,x72,x73,x74,x75,x76,x77;